32      4       
11      20      20      18      
0       0       0       0       0       3       2       4       6       
4       1       0       0       18      2       5       3       
10      3       0       6       0       2       10      7       
9       8       0       0       8       2       10      7       
1       1       0       1       0       3       10      9       8       
6       2       0       7       0       1       7       
5       0       0       8       1       2       9       8       
7       2       7       0       0       1       11      
7       1       1       0       0       1       11      
7       1       0       0       2       1       11      
8       1       4       0       0       2       14      12      
5       7       8       0       0       1       13      
6       0       6       0       4       2       16      15      
2       2       4       0       0       2       17      16      
2       3       0       0       1       2       23      17      
8       1       0       1       0       4       23      21      20      19      
9       0       0       1       1       1       18      
3       0       7       0       7       3       21      20      19      
10      0       1       6       0       2       24      22      
5       0       4       15      0       3       29      25      24      
2       0       1       0       5       3       29      25      24      
4       1       0       1       0       3       29      28      25      
1       0       0       4       1       2       29      24      
7       0       5       0       1       3       28      27      26      
4       0       0       5       1       2       27      26      
3       0       0       14      10      2       31      30      
10      0       0       2       6       2       31      30      
10      7       7       0       0       2       31      30      
5       0       15      3       0       2       31      30      
5       0       3       0       2       1       32      
4       0       2       1       0       1       32      
0       0       0       0       0       0       
